(set-info :smt-lib-version 2.6)
(set-logic QF_NIA)
(set-info :source |
Generated by: Cristina Borralleras, Daniel Larraz, Albert Oliveras, Enric Rodriguez-Carbonell, Albert Rubio
Generated on: 2017-04-27
Generator: VeryMax
Application: Termination proving
Target solver: barcelogic
|)
(set-info :license "https://creativecommons.org/licenses/by/4.0/")
(set-info :category "industrial")
(set-info :status unsat)
(declare-fun Nl2main_x1 () Int)
(declare-fun Nl2main_y1 () Int)
(declare-fun Nl2main_x2 () Int)
(declare-fun Nl2main_y2 () Int)
(declare-fun lam0n0 () Int)
(declare-fun lam0n1 () Int)
(declare-fun lam0n2 () Int)
(declare-fun lam0n3 () Int)
(declare-fun lam0n4 () Int)
(declare-fun lam0n5 () Int)
(declare-fun lam0n6 () Int)
(declare-fun lam0n7 () Int)
(declare-fun lam0n8 () Int)
(declare-fun Nl2CT1 () Int)
(declare-fun Nl2CT2 () Int)
(declare-fun lam1n0 () Int)
(declare-fun lam1n1 () Int)
(declare-fun lam1n2 () Int)
(declare-fun lam1n3 () Int)
(declare-fun lam1n4 () Int)
(declare-fun lam1n5 () Int)
(declare-fun lam1n6 () Int)
(declare-fun lam1n7 () Int)
(declare-fun lam1n8 () Int)
(declare-fun lam2n0 () Int)
(declare-fun lam2n1 () Int)
(declare-fun lam2n2 () Int)
(declare-fun lam2n3 () Int)
(declare-fun lam2n4 () Int)
(declare-fun lam2n5 () Int)
(declare-fun lam2n6 () Int)
(declare-fun lam2n7 () Int)
(declare-fun lam2n8 () Int)
(declare-fun lam3n0 () Int)
(declare-fun lam3n1 () Int)
(declare-fun lam3n2 () Int)
(declare-fun lam3n3 () Int)
(declare-fun lam3n4 () Int)
(declare-fun lam3n5 () Int)
(declare-fun lam3n6 () Int)
(declare-fun lam3n7 () Int)
(declare-fun lam3n8 () Int)
(declare-fun lam4n0 () Int)
(declare-fun lam4n1 () Int)
(declare-fun lam4n2 () Int)
(declare-fun lam4n3 () Int)
(declare-fun lam4n4 () Int)
(declare-fun lam4n5 () Int)
(declare-fun lam4n6 () Int)
(declare-fun lam4n7 () Int)
(declare-fun lam4n8 () Int)
(declare-fun main_x () Int)
(declare-fun main_y () Int)
(declare-fun undef3 () Int)
(declare-fun undef4 () Int)
(declare-fun lam8n0 () Int)
(declare-fun lam8n1 () Int)
(declare-fun lam8n2 () Int)
(declare-fun lam8n3 () Int)
(declare-fun lam8n4 () Int)
(declare-fun lam8n5 () Int)
(declare-fun lam8n6 () Int)
(declare-fun lam8n7 () Int)
(declare-fun lam8n8 () Int)
(declare-fun RFN1_CT () Int)
(declare-fun RFN1_main_x () Int)
(declare-fun RFN1_main_y () Int)
(declare-fun lam6n0 () Int)
(declare-fun lam6n1 () Int)
(declare-fun lam6n2 () Int)
(declare-fun lam6n3 () Int)
(declare-fun lam6n4 () Int)
(declare-fun lam6n5 () Int)
(declare-fun lam6n6 () Int)
(declare-fun lam6n7 () Int)
(declare-fun lam6n8 () Int)
(declare-fun lam7n0 () Int)
(declare-fun lam7n1 () Int)
(declare-fun lam7n2 () Int)
(declare-fun lam7n3 () Int)
(declare-fun lam7n4 () Int)
(declare-fun lam7n5 () Int)
(declare-fun lam7n6 () Int)
(declare-fun lam7n7 () Int)
(declare-fun lam7n8 () Int)
(declare-fun lam5n0 () Int)
(declare-fun lam5n1 () Int)
(declare-fun lam5n2 () Int)
(declare-fun lam5n3 () Int)
(declare-fun lam5n4 () Int)
(declare-fun lam5n5 () Int)
(declare-fun lam5n6 () Int)
(declare-fun lam5n7 () Int)
(declare-fun lam5n8 () Int)
(assert ( and ( <= ( - 1 ) Nl2main_x1 ) ( <= Nl2main_x1 1 ) ( <= ( - 1 ) Nl2main_y1 ) ( <= Nl2main_y1 1 ) ( <= ( - 1 ) Nl2main_x2 ) ( <= Nl2main_x2 1 ) ( <= ( - 1 ) Nl2main_y2 ) ( <= Nl2main_y2 1 ) ))
(assert ( or ( and ( >= lam0n0 0 ) ( >= lam0n1 0 ) ( >= lam0n2 0 ) ( >= lam0n3 0 ) ( >= lam0n4 0 ) ( >= lam0n5 0 ) ( >= lam0n6 0 ) ( >= lam0n7 0 ) ( >= lam0n8 0 ) ( > ( + ( * ( - 4 ) lam0n0 ) ( * ( - 7 ) lam0n1 ) ( * ( - 6 ) lam0n2 ) ( * ( - 11 ) lam0n3 ) ( * ( - 10 ) lam0n4 ) ( * ( - 19 ) lam0n5 ) ( * ( - 18 ) lam0n6 ) ( * Nl2CT1 lam0n7 ) ( * Nl2CT2 lam0n8 ) ( - 1 ) ) 0 ) ( = ( + ( * 1 lam0n0 ) ( * 1 lam0n1 ) ( * ( - 1 ) lam0n3 ) ( * ( - 1 ) lam0n4 ) ( * ( - 1 ) lam0n5 ) ( * Nl2main_x1 lam0n7 ) ( * Nl2main_x2 lam0n8 ) ) 0 ) ( = ( + ( * ( - 1 ) lam0n1 ) ( * ( - 1 ) lam0n2 ) ( * ( - 1 ) lam0n3 ) ( * 1 lam0n5 ) ( * 1 lam0n6 ) ( * Nl2main_y1 lam0n7 ) ( * Nl2main_y2 lam0n8 ) ) 0 ) ) ( and ( >= lam1n0 0 ) ( >= lam1n1 0 ) ( >= lam1n2 0 ) ( >= lam1n3 0 ) ( >= lam1n4 0 ) ( >= lam1n5 0 ) ( >= lam1n6 0 ) ( >= lam1n7 0 ) ( >= lam1n8 0 ) ( > ( + ( * ( - 4 ) lam1n0 ) ( * ( - 7 ) lam1n1 ) ( * ( - 6 ) lam1n2 ) ( * ( - 11 ) lam1n3 ) ( * ( - 10 ) lam1n4 ) ( * ( - 19 ) lam1n5 ) ( * ( - 18 ) lam1n6 ) ( * Nl2CT1 lam1n7 ) ( * Nl2CT2 lam1n8 ) ( - 1 ( + ( + Nl2CT1 ( * Nl2main_x1 0 ) ) ( * Nl2main_y1 0 ) ) ) ) 0 ) ( = ( + ( * 1 lam1n0 ) ( * 1 lam1n1 ) ( * ( - 1 ) lam1n3 ) ( * ( - 1 ) lam1n4 ) ( * ( - 1 ) lam1n5 ) ( * Nl2main_x1 lam1n7 ) ( * Nl2main_x2 lam1n8 ) ( - ( + ( + 0 ( * Nl2main_x1 1 ) ) ( * Nl2main_y1 1 ) ) ) ) 0 ) ( = ( + ( * ( - 1 ) lam1n1 ) ( * ( - 1 ) lam1n2 ) ( * ( - 1 ) lam1n3 ) ( * 1 lam1n5 ) ( * 1 lam1n6 ) ( * Nl2main_y1 lam1n7 ) ( * Nl2main_y2 lam1n8 ) ( - ( + ( + 0 ( * Nl2main_x1 ( - 1 ) ) ) ( * Nl2main_y1 1 ) ) ) ) 0 ) ) ))
(assert ( or ( and ( >= lam0n0 0 ) ( >= lam0n1 0 ) ( >= lam0n2 0 ) ( >= lam0n3 0 ) ( >= lam0n4 0 ) ( >= lam0n5 0 ) ( >= lam0n6 0 ) ( >= lam0n7 0 ) ( >= lam0n8 0 ) ( > ( + ( * ( - 4 ) lam0n0 ) ( * ( - 7 ) lam0n1 ) ( * ( - 6 ) lam0n2 ) ( * ( - 11 ) lam0n3 ) ( * ( - 10 ) lam0n4 ) ( * ( - 19 ) lam0n5 ) ( * ( - 18 ) lam0n6 ) ( * Nl2CT1 lam0n7 ) ( * Nl2CT2 lam0n8 ) ( - 1 ) ) 0 ) ( = ( + ( * 1 lam0n0 ) ( * 1 lam0n1 ) ( * ( - 1 ) lam0n3 ) ( * ( - 1 ) lam0n4 ) ( * ( - 1 ) lam0n5 ) ( * Nl2main_x1 lam0n7 ) ( * Nl2main_x2 lam0n8 ) ) 0 ) ( = ( + ( * ( - 1 ) lam0n1 ) ( * ( - 1 ) lam0n2 ) ( * ( - 1 ) lam0n3 ) ( * 1 lam0n5 ) ( * 1 lam0n6 ) ( * Nl2main_y1 lam0n7 ) ( * Nl2main_y2 lam0n8 ) ) 0 ) ) ( and ( >= lam2n0 0 ) ( >= lam2n1 0 ) ( >= lam2n2 0 ) ( >= lam2n3 0 ) ( >= lam2n4 0 ) ( >= lam2n5 0 ) ( >= lam2n6 0 ) ( >= lam2n7 0 ) ( >= lam2n8 0 ) ( > ( + ( * ( - 4 ) lam2n0 ) ( * ( - 7 ) lam2n1 ) ( * ( - 6 ) lam2n2 ) ( * ( - 11 ) lam2n3 ) ( * ( - 10 ) lam2n4 ) ( * ( - 19 ) lam2n5 ) ( * ( - 18 ) lam2n6 ) ( * Nl2CT1 lam2n7 ) ( * Nl2CT2 lam2n8 ) ( - 1 ( + ( + Nl2CT2 ( * Nl2main_x2 0 ) ) ( * Nl2main_y2 0 ) ) ) ) 0 ) ( = ( + ( * 1 lam2n0 ) ( * 1 lam2n1 ) ( * ( - 1 ) lam2n3 ) ( * ( - 1 ) lam2n4 ) ( * ( - 1 ) lam2n5 ) ( * Nl2main_x1 lam2n7 ) ( * Nl2main_x2 lam2n8 ) ( - ( + ( + 0 ( * Nl2main_x2 1 ) ) ( * Nl2main_y2 1 ) ) ) ) 0 ) ( = ( + ( * ( - 1 ) lam2n1 ) ( * ( - 1 ) lam2n2 ) ( * ( - 1 ) lam2n3 ) ( * 1 lam2n5 ) ( * 1 lam2n6 ) ( * Nl2main_y1 lam2n7 ) ( * Nl2main_y2 lam2n8 ) ( - ( + ( + 0 ( * Nl2main_x2 ( - 1 ) ) ) ( * Nl2main_y2 1 ) ) ) ) 0 ) ) ))
(assert ( and ( not ( <= ( + 5 ( * ( - 1 ) main_x ) ) 0 ) ) ( not ( <= ( + 8 ( * ( - 1 ) main_x ) main_y ) 0 ) ) ( not ( <= ( + 7 main_y ) 0 ) ) ( not ( <= ( + 12 main_x main_y ) 0 ) ) ( not ( <= ( + 11 main_x ) 0 ) ) ( not ( <= ( + 20 main_x ( * ( - 1 ) main_y ) ) 0 ) ) ( not ( <= ( + 19 ( * ( - 1 ) main_y ) ) 0 ) ) ( = ( + main_x ( * ( - 1 ) undef3 ) ) 0 ) ( = ( + main_y ( * ( - 1 ) undef4 ) ) 0 ) ( <= ( + Nl2CT1 ( * ( + 0 Nl2main_x1 ) main_x ) ( * ( + 0 Nl2main_y1 ) main_y ) ) 0 ) ( <= ( + Nl2CT2 ( * ( + 0 Nl2main_x2 ) main_x ) ( * ( + 0 Nl2main_y2 ) main_y ) ) 0 ) ))
(assert ( or ( and ( and ( >= lam8n0 0 ) ( >= lam8n1 0 ) ( >= lam8n2 0 ) ( >= lam8n3 0 ) ( >= lam8n4 0 ) ( >= lam8n5 0 ) ( >= lam8n6 0 ) ( >= lam8n7 0 ) ( >= lam8n8 0 ) ( > ( + ( * ( - 4 ) lam8n0 ) ( * ( - 7 ) lam8n1 ) ( * ( - 6 ) lam8n2 ) ( * ( - 11 ) lam8n3 ) ( * ( - 10 ) lam8n4 ) ( * ( - 19 ) lam8n5 ) ( * ( - 18 ) lam8n6 ) ( * Nl2CT1 lam8n7 ) ( * Nl2CT2 lam8n8 ) ( - 1 ( - ( + ( + RFN1_CT ( * RFN1_main_x 0 ) ) ( * RFN1_main_y 0 ) ) RFN1_CT ) ) ) 0 ) ( = ( + ( * 1 lam8n0 ) ( * 1 lam8n1 ) ( * ( - 1 ) lam8n3 ) ( * ( - 1 ) lam8n4 ) ( * ( - 1 ) lam8n5 ) ( * Nl2main_x1 lam8n7 ) ( * Nl2main_x2 lam8n8 ) ( - ( - ( + ( + 0 ( * RFN1_main_x 1 ) ) ( * RFN1_main_y 1 ) ) RFN1_main_x ) ) ) 0 ) ( = ( + ( * ( - 1 ) lam8n1 ) ( * ( - 1 ) lam8n2 ) ( * ( - 1 ) lam8n3 ) ( * 1 lam8n5 ) ( * 1 lam8n6 ) ( * Nl2main_y1 lam8n7 ) ( * Nl2main_y2 lam8n8 ) ( - ( - ( + ( + 0 ( * RFN1_main_x ( - 1 ) ) ) ( * RFN1_main_y 1 ) ) RFN1_main_y ) ) ) 0 ) ) ( and ( and ( >= lam6n0 0 ) ( >= lam6n1 0 ) ( >= lam6n2 0 ) ( >= lam6n3 0 ) ( >= lam6n4 0 ) ( >= lam6n5 0 ) ( >= lam6n6 0 ) ( >= lam6n7 0 ) ( >= lam6n8 0 ) ( > ( + ( * ( - 4 ) lam6n0 ) ( * ( - 7 ) lam6n1 ) ( * ( - 6 ) lam6n2 ) ( * ( - 11 ) lam6n3 ) ( * ( - 10 ) lam6n4 ) ( * ( - 19 ) lam6n5 ) ( * ( - 18 ) lam6n6 ) ( * Nl2CT1 lam6n7 ) ( * Nl2CT2 lam6n8 ) ( - 1 ( - RFN1_CT ) ) ) 0 ) ( = ( + ( * 1 lam6n0 ) ( * 1 lam6n1 ) ( * ( - 1 ) lam6n3 ) ( * ( - 1 ) lam6n4 ) ( * ( - 1 ) lam6n5 ) ( * Nl2main_x1 lam6n7 ) ( * Nl2main_x2 lam6n8 ) ( - ( - RFN1_main_x ) ) ) 0 ) ( = ( + ( * ( - 1 ) lam6n1 ) ( * ( - 1 ) lam6n2 ) ( * ( - 1 ) lam6n3 ) ( * 1 lam6n5 ) ( * 1 lam6n6 ) ( * Nl2main_y1 lam6n7 ) ( * Nl2main_y2 lam6n8 ) ( - ( - RFN1_main_y ) ) ) 0 ) ) ( and ( >= lam7n0 0 ) ( >= lam7n1 0 ) ( >= lam7n2 0 ) ( >= lam7n3 0 ) ( >= lam7n4 0 ) ( >= lam7n5 0 ) ( >= lam7n6 0 ) ( >= lam7n7 0 ) ( >= lam7n8 0 ) ( > ( + ( * ( - 4 ) lam7n0 ) ( * ( - 7 ) lam7n1 ) ( * ( - 6 ) lam7n2 ) ( * ( - 11 ) lam7n3 ) ( * ( - 10 ) lam7n4 ) ( * ( - 19 ) lam7n5 ) ( * ( - 18 ) lam7n6 ) ( * Nl2CT1 lam7n7 ) ( * Nl2CT2 lam7n8 ) ( - 1 ( + ( - ( + ( + RFN1_CT ( * RFN1_main_x 0 ) ) ( * RFN1_main_y 0 ) ) RFN1_CT ) 1 ) ) ) 0 ) ( = ( + ( * 1 lam7n0 ) ( * 1 lam7n1 ) ( * ( - 1 ) lam7n3 ) ( * ( - 1 ) lam7n4 ) ( * ( - 1 ) lam7n5 ) ( * Nl2main_x1 lam7n7 ) ( * Nl2main_x2 lam7n8 ) ( - ( - ( + ( + 0 ( * RFN1_main_x 1 ) ) ( * RFN1_main_y 1 ) ) RFN1_main_x ) ) ) 0 ) ( = ( + ( * ( - 1 ) lam7n1 ) ( * ( - 1 ) lam7n2 ) ( * ( - 1 ) lam7n3 ) ( * 1 lam7n5 ) ( * 1 lam7n6 ) ( * Nl2main_y1 lam7n7 ) ( * Nl2main_y2 lam7n8 ) ( - ( - ( + ( + 0 ( * RFN1_main_x ( - 1 ) ) ) ( * RFN1_main_y 1 ) ) RFN1_main_y ) ) ) 0 ) ) ) ) ( and ( >= lam5n0 0 ) ( >= lam5n1 0 ) ( >= lam5n2 0 ) ( >= lam5n3 0 ) ( >= lam5n4 0 ) ( >= lam5n5 0 ) ( >= lam5n6 0 ) ( >= lam5n7 0 ) ( >= lam5n8 0 ) ( > ( + ( * ( - 4 ) lam5n0 ) ( * ( - 7 ) lam5n1 ) ( * ( - 6 ) lam5n2 ) ( * ( - 11 ) lam5n3 ) ( * ( - 10 ) lam5n4 ) ( * ( - 19 ) lam5n5 ) ( * ( - 18 ) lam5n6 ) ( * Nl2CT1 lam5n7 ) ( * Nl2CT2 lam5n8 ) ( - 1 ) ) 0 ) ( = ( + ( * 1 lam5n0 ) ( * 1 lam5n1 ) ( * ( - 1 ) lam5n3 ) ( * ( - 1 ) lam5n4 ) ( * ( - 1 ) lam5n5 ) ( * Nl2main_x1 lam5n7 ) ( * Nl2main_x2 lam5n8 ) ) 0 ) ( = ( + ( * ( - 1 ) lam5n1 ) ( * ( - 1 ) lam5n2 ) ( * ( - 1 ) lam5n3 ) ( * 1 lam5n5 ) ( * 1 lam5n6 ) ( * Nl2main_y1 lam5n7 ) ( * Nl2main_y2 lam5n8 ) ) 0 ) ) ))
(check-sat)
(exit)
